     Program PHONON v.7.0 starts on  7Apr2023 at  2:21: 0

     R & G space division:  proc/nbgrp/npool/nimage =       8

     Waiting for input...
     Reading input from standard input

     Reading xml data from directory:

     ./si.save/

     IMPORTANT: XC functional enforced from input :
     Exchange-correlation= PBE
                           (   1   4   3   4   0   0   0)
     Any further DFT definition will be discarded
     Please, verify this is what you really want

     Using Slab Decomposition

     Reading collected, re-writing distributed wavefunctions

     Dynamical matrices for ( 3, 3, 3)  uniform grid of q-points
     (   4 q-points):
       N         xq(1)         xq(2)         xq(3)
       1   0.000000000   0.000000000   0.000000000
       2  -0.333333333   0.333333333  -0.333333333
       3   0.000000000   0.666666667   0.000000000
       4   0.666666667  -0.000000000   0.666666667

     Saving dvscf to file. Distribute only q points, not irreducible represetations.

     Calculation of q =    0.0000000   0.0000000   0.0000000

     --

     bravais-lattice index     =            2
     lattice parameter (alat)  =      10.2620  a.u.
     unit-cell volume          =     270.1693 (a.u.)^3
     number of atoms/cell      =            2
     number of atomic types    =            1
     kinetic-energy cut-off    =      20.0000  Ry
     charge density cut-off    =      80.0000  Ry
     convergence threshold     =      1.0E-14
     beta                      =       0.7000
     number of iterations used =            4
     Exchange-correlation= PBE
                           (   1   4   3   4   0   0   0)

     celldm(1)=   10.26200  celldm(2)=    0.00000  celldm(3)=    0.00000
     celldm(4)=    0.00000  celldm(5)=    0.00000  celldm(6)=    0.00000

     crystal axes: (cart. coord. in units of alat)
               a(1) = ( -0.5000  0.0000  0.5000 )
               a(2) = (  0.0000  0.5000  0.5000 )
               a(3) = ( -0.5000  0.5000  0.0000 )

     reciprocal axes: (cart. coord. in units 2 pi/alat)
               b(1) = ( -1.0000 -1.0000  1.0000 )
               b(2) = (  1.0000  1.0000  1.0000 )
               b(3) = ( -1.0000  1.0000 -1.0000 )

     Atoms inside the unit cell:

     Cartesian axes

     site n.  atom      mass           positions (alat units)
        1     Si  28.0855   tau(    1) = (    0.00000    0.00000    0.00000  )
        2     Si  28.0855   tau(    2) = (    0.25000    0.25000    0.25000  )

     Computing dynamical matrix for
                    q = (   0.0000000   0.0000000   0.0000000 )

     49 Sym.Ops. (with q -> -q+G )

     G cutoff =  213.3999  (    412 G-vectors)     FFT grid: ( 24, 24, 24)
     number of k points=    72

     PseudoPot. # 1 for Si read from file:
     ./Si_r.upf
     MD5 check sum: c84abb4b0aac9c93a8e9f74896432a0a
     Pseudo is Norm-conserving + core correction, Zval =  4.0
     Generated using ONCVPSP code by D. R. Hamann
     Using radial grid of 1528 points,  6 beta functions with:
                l(1) =   0
                l(2) =   0
                l(3) =   1
                l(4) =   1
                l(5) =   2
                l(6) =   2

     Mode symmetry, O_h (m-3m)  point group:

     Electric field:
     Dielectric constant
     Born effective charges in two ways

     Atomic displacements:
     There are    2 irreducible representations

     Representation     1      3 modes -  To be done

[...]

     Alpha used in Ewald sum =   0.8000

     Electric Fields Calculation

      thresh= 1.000E-02 alpha_mix =  0.700 |ddv_scf|^2 =  4.586E-07

[...]

     End of electric fields calculation

          Dielectric constant in cartesian axis

          (      12.982908688       0.000000000       0.000000000 )
          (       0.000000000      12.982908688      -0.000000000 )
          (       0.000000000      -0.000000000      12.982908688 )

          Effective charges (d Force / dE) in cartesian axis without acoustic sum rule applied (asr)

           atom      1   Si Mean Z*:       -0.00778
      Ex  (       -0.00778        0.00000        0.00000 )
      Ey  (        0.00000       -0.00778       -0.00000 )
      Ez  (        0.00000       -0.00000       -0.00778 )
           atom      2   Si Mean Z*:       -0.00778
      Ex  (       -0.00778        0.00000        0.00000 )
      Ey  (        0.00000       -0.00778        0.00000 )
      Ez  (        0.00000        0.00000       -0.00778 )

          Effective charges Sum: Mean:       -0.01556
             -0.01556        0.00000        0.00000
              0.00000       -0.01556       -0.00000
              0.00000       -0.00000       -0.01556

          Effective charges (d Force / dE) in cartesian axis with asr applied:
           atom      1   Si Mean Z*:        0.00000
      E*x (        0.00000        0.00000        0.00000 )
      E*y (        0.00000        0.00000       -0.00000 )
      E*z (       -0.00000       -0.00000        0.00000 )
           atom      2   Si Mean Z*:       -0.00000
      E*x (       -0.00000       -0.00000        0.00000 )
      E*y (       -0.00000       -0.00000        0.00000 )
      E*z (        0.00000        0.00000       -0.00000 )

     Representation #   1 modes #   1   2   3

     Self-consistent Calculation

[...]

     End of self-consistent calculation

     Convergence has been achieved

[...]

     Number of q in the star =    1
     List of q in the star:
          1   0.000000000   0.000000000   0.000000000

          Dielectric constant in cartesian axis

          (      12.982908688       0.000000000       0.000000000 )
          (       0.000000000      12.982908688      -0.000000000 )
          (       0.000000000      -0.000000000      12.982908688 )

          Effective charges (d Force / dE) in cartesian axis without acoustic sum rule applied (asr)

           atom      1   Si Mean Z*:       -0.00778
      Ex  (       -0.00778        0.00000        0.00000 )
      Ey  (        0.00000       -0.00778       -0.00000 )
      Ez  (        0.00000       -0.00000       -0.00778 )
           atom      2   Si Mean Z*:       -0.00778
      Ex  (       -0.00778        0.00000        0.00000 )
      Ey  (        0.00000       -0.00778        0.00000 )
      Ez  (        0.00000        0.00000       -0.00778 )

          Effective charges Sum: Mean:       -0.01556
             -0.01556        0.00000        0.00000
              0.00000       -0.01556       -0.00000
              0.00000       -0.00000       -0.01556

          Effective charges (d Force / dE) in cartesian axis with asr applied:
           atom      1   Si Mean Z*:        0.00000
      E*x (        0.00000        0.00000        0.00000 )
      E*y (        0.00000        0.00000       -0.00000 )
      E*z (       -0.00000       -0.00000        0.00000 )
           atom      2   Si Mean Z*:       -0.00000
      E*x (       -0.00000       -0.00000        0.00000 )
      E*y (       -0.00000       -0.00000        0.00000 )
      E*z (        0.00000        0.00000       -0.00000 )

          Effective charges (d P / du) in cartesian axis

           atom      1   Si
      Px  (       -0.00794        0.00000        0.00000 )
      Py  (        0.00000       -0.00794       -0.00000 )
      Pz  (        0.00000       -0.00000       -0.00794 )
           atom      2   Si
      Px  (       -0.00794        0.00000        0.00000 )
      Py  (        0.00000       -0.00794       -0.00000 )
      Pz  (        0.00000       -0.00000       -0.00794 )

     Diagonalizing the dynamical matrix

     q = (    0.000000000   0.000000000   0.000000000 )

     freq (    1) =      -0.122472 [THz] =      -4.085231 [cm-1]
     freq (    2) =      -0.122472 [THz] =      -4.085231 [cm-1]
     freq (    3) =      -0.122472 [THz] =      -4.085231 [cm-1]
     freq (    4) =      15.394156 [THz] =     513.493784 [cm-1]
     freq (    5) =      15.394156 [THz] =     513.493784 [cm-1]
     freq (    6) =      15.394156 [THz] =     513.493784 [cm-1]

     Mode symmetry, O_h (m-3m)  point group:

     freq (   1-   3) =         -4.1  [cm-1]   --> T_1u G_15  G_4- I
     freq (   4-   6) =        513.5  [cm-1]   --> T_2g G_25' G_5+ R

[...]

     Subspace diagonalization in iterative solution of the eigenvalue problem:
     a serial algorithm will be used

[...]

     Title:
     --

     bravais-lattice index     =            2
     lattice parameter (alat)  =      10.2620  a.u.
     unit-cell volume          =     270.1693 (a.u.)^3
     number of atoms/cell      =            2
     number of atomic types    =            1
     number of electrons       =         8.00
     number of Kohn-Sham states=            4
     kinetic-energy cutoff     =      20.0000  Ry
     charge density cutoff     =      80.0000  Ry
     Exchange-correlation= PBE
                           (   1   4   3   4   0   0   0)

[...]

     atomic species   valence    mass     pseudopotential
        Si             4.00    28.08550     Si( 1.00)

     48 Sym. Ops., with inversion, found

[...]

     site n.     atom                  positions (alat units)
         1           Si  tau(   1) = (   0.0000000   0.0000000   0.0000000  )
         2           Si  tau(   2) = (   0.2500000   0.2500000   0.2500000  )

     number of k points=   728

     Number of k-points >= 100: set verbosity='high' to print them.

     The potential is recalculated from file :
     ./_ph0/si.q_2/si.save/charge-density

     Starting wfcs are    8 atomic wfcs

     Band Structure Calculation
     Davidson diagonalization with overlap

     ethr =  1.25E-10,  avg # of iterations = 12.2

     End of band structure calculation

     Number of k-points >= 100: set verbosity='high' to print the bands.

     highest occupied level (ev):     6.2426

     Writing config to output data dir ./_ph0/si.q_2/si.save/

[...]

      6 Sym.Ops. (no q -> -q+G )

[...]

     Mode symmetry, C_3v (3m)   point group:

[...]

     Representation #   1 mode #   1

[...]

     Mode symmetry, C_3v (3m)   point group:

     freq (   1-   2) =        102.5  [cm-1]   --> E    L_3
     freq (   3-   3) =        292.0  [cm-1]   --> A_1  L_1
     freq (   4-   4) =        462.0  [cm-1]   --> A_1  L_1
     freq (   5-   6) =        491.9  [cm-1]   --> E    L_3

[...]

     Mode symmetry, C_4v (4mm)  point group:

[...]

     Representation #   4 modes #   5   6

[...]

     Mode symmetry, C_4v (4mm)  point group:

     freq (   1-   2) =        136.4  [cm-1]   --> E    G_5 D_5
     freq (   3-   3) =        306.6  [cm-1]   --> A_1  G_1 D_1
     freq (   4-   5) =        466.3  [cm-1]   --> E    G_5 D_5
     freq (   6-   6) =        472.7  [cm-1]   --> B_2  G_4 D_2'

     Calculation of q =    0.6666667  -0.0000000   0.6666667

     Using Slab Decomposition

     Title:
     --

     bravais-lattice index     =            2
     lattice parameter (alat)  =      10.2620  a.u.
     unit-cell volume          =     270.1693 (a.u.)^3
     number of atoms/cell      =            2
     number of atomic types    =            1
     number of electrons       =         8.00
     number of Kohn-Sham states=            4
     kinetic-energy cutoff     =      20.0000  Ry
     charge density cutoff     =      80.0000  Ry
     Exchange-correlation= PBE
                           (   1   4   3   4   0   0   0)

[...]

     atomic species   valence    mass     pseudopotential
        Si             4.00    28.08550     Si( 1.00)

     48 Sym. Ops., with inversion, found

[...]

     site n.     atom                  positions (alat units)
         1           Si  tau(   1) = (   0.0000000   0.0000000   0.0000000  )
         2           Si  tau(   2) = (   0.2500000   0.2500000   0.2500000  )

     number of k points=  1020

     Number of k-points >= 100: set verbosity='high' to print them.

     The potential is recalculated from file :
     ./_ph0/si.q_4/si.save/charge-density

     Starting wfcs are    8 atomic wfcs

     Band Structure Calculation
     Davidson diagonalization with overlap

     ethr =  1.25E-10,  avg # of iterations = 12.1

     End of band structure calculation

     Number of k-points >= 100: set verbosity='high' to print the bands.

     highest occupied level (ev):     6.2426

     Writing config to output data dir ./_ph0/si.q_4/si.save/

     --

     bravais-lattice index     =            2
     lattice parameter (alat)  =      10.2620  a.u.
     unit-cell volume          =     270.1693 (a.u.)^3
     number of atoms/cell      =            2
     number of atomic types    =            1
     kinetic-energy cut-off    =      20.0000  Ry
     charge density cut-off    =      80.0000  Ry
     convergence threshold     =      1.0E-14
     beta                      =       0.7000
     number of iterations used =            4
     Exchange-correlation= PBE
                           (   1   4   3   4   0   0   0)

     celldm(1)=   10.26200  celldm(2)=    0.00000  celldm(3)=    0.00000
     celldm(4)=    0.00000  celldm(5)=    0.00000  celldm(6)=    0.00000

     crystal axes: (cart. coord. in units of alat)
               a(1) = ( -0.5000  0.0000  0.5000 )
               a(2) = (  0.0000  0.5000  0.5000 )
               a(3) = ( -0.5000  0.5000  0.0000 )

     reciprocal axes: (cart. coord. in units 2 pi/alat)
               b(1) = ( -1.0000 -1.0000  1.0000 )
               b(2) = (  1.0000  1.0000  1.0000 )
               b(3) = ( -1.0000  1.0000 -1.0000 )

     Atoms inside the unit cell:

     Cartesian axes

     site n.  atom      mass           positions (alat units)
        1     Si  28.0855   tau(    1) = (    0.00000    0.00000    0.00000  )
        2     Si  28.0855   tau(    2) = (    0.25000    0.25000    0.25000  )

     Computing dynamical matrix for
                    q = (   0.6666667  -0.0000000   0.6666667 )

      4 Sym.Ops. (no q -> -q+G )

     G cutoff =  213.3999  (    412 G-vectors)     FFT grid: ( 24, 24, 24)
     number of k points=  1020

     PseudoPot. # 1 for Si read from file:
     ./Si_r.upf
     MD5 check sum: c84abb4b0aac9c93a8e9f74896432a0a
     Pseudo is Norm-conserving + core correction, Zval =  4.0
     Generated using ONCVPSP code by D. R. Hamann
     Using radial grid of 1528 points,  6 beta functions with:
                l(1) =   0
                l(2) =   0
                l(3) =   1
                l(4) =   1
                l(5) =   2
                l(6) =   2

     Mode symmetry, C_2v (mm2)  point group:

     Atomic displacements:
     There are    6 irreducible representations

[...]

     Representation     6      1 modes -  To be done

     Alpha used in Ewald sum =   0.8000

[...]

     Representation #   6 mode #   6

     Self-consistent Calculation

[...]

      thresh= 2.044E-08 alpha_mix =  0.700 |ddv_scf|^2 =  3.348E-15

     End of self-consistent calculation

     Convergence has been achieved

     Number of q in the star =   12
     List of q in the star:
          1   0.666666667   0.000000000   0.666666667
          2   0.666666667   0.000000000  -0.666666667
          3  -0.666666667   0.000000000  -0.666666667
          4  -0.666666667   0.000000000   0.666666667
          5   0.000000000  -0.666666667   0.666666667
          6  -0.666666667   0.666666667   0.000000000
          7  -0.666666667  -0.666666667   0.000000000
          8   0.666666667   0.666666667   0.000000000
          9   0.666666667  -0.666666667   0.000000000
         10   0.000000000   0.666666667   0.666666667
         11   0.000000000   0.666666667  -0.666666667
         12   0.000000000  -0.666666667  -0.666666667

     Diagonalizing the dynamical matrix

     q = (    0.666666667  -0.000000000   0.666666667 )

     freq (    1) =       4.296384 [THz] =     143.311958 [cm-1]
     freq (    2) =       6.443076 [THz] =     214.917881 [cm-1]
     freq (    3) =      10.135809 [THz] =     338.094188 [cm-1]
     freq (    4) =      11.365488 [THz] =     379.111857 [cm-1]
     freq (    5) =      13.951831 [THz] =     465.382978 [cm-1]
     freq (    6) =      14.510639 [THz] =     484.022827 [cm-1]

     Mode symmetry, C_2v (mm2)  point group:

     freq (   1-   1) =        143.3  [cm-1]   --> B_1  D_3  S_3
     freq (   2-   2) =        214.9  [cm-1]   --> B_2  D_4  S_4
     freq (   3-   3) =        338.1  [cm-1]   --> A_1  D_1  S_1
     freq (   4-   4) =        379.1  [cm-1]   --> B_2  D_4  S_4
     freq (   5-   5) =        465.4  [cm-1]   --> A_2  D_2  S_2
     freq (   6-   6) =        484.0  [cm-1]   --> A_1  D_1  S_1

     General routines

     Parallel routines

     INITIALIZATION:

     DYNAMICAL MATRIX:

      General routines

   This run was terminated on:   2:25:28   7Apr2023

   JOB DONE.